74 174 98 34 15 160 115 95 138 192 65 73 90 77 45 60 42 186 146 155 157 153 143 22 7 79 75 189 158 197 193 81 36 99 54 72 162 150 2 19 114 29 191 181 176 63 43 147 35 100 169 89 23 137 108 32 76 3 178 93 142 9 128 41 166 97 111 149 182 190 167 16 33 70 180 136 50 44 4 91 161 139 0 17 67 47 103 168 5 135 56 163 132 126 51 116 125 148 53 55 52 106 27 188 20 58 121 21 183 11 130 194 122 195 117 105 102 107 184 170 14 46 8 59 25 62 83 66 6 154 86 24 1 134 159 173 165 39 92 131 120 82 141 13 38 12 68 10 133 179 129 177 113 151 49 88 140 124 94 112 84 18 26 30 127 199 172 31 104 119 78 185 80 96 64 171 164 71 110 196 109 144 118 101 61 69 57 175 152 48 40 156 198 37 87 187 123 28 85 145